
Log started (V11.0.0) Sun Apr 13 13:56:29 2008

Tried aggregator 1 time.
Reduced MIP has 220 rows, 4001 columns, and 8020 nonzeros.
Presolve time =    0.03 sec.
Clique table members: 200.
MIP emphasis: balance optimality and feasibility.
MIP search method: dynamic search.
Parallel mode: none, using 1 thread.
Root relaxation solution time =    0.09 sec.

        Nodes                                         Cuts/
   Node  Left     Objective  IInf  Best Integer     Best Node    ItCnt     Gap

*     0+    0                         9968.0000       55.9226      519   99.44%
*     0+    0                           84.0000       55.9226      519   33.43%
      0     0       56.1745    46       84.0000      Fract: 8      601   33.13%
*     0+    0                           77.0000       56.1745      601   27.05%
      0     0       56.2651    57       77.0000    MIRcuts: 5      619   26.93%
*     0+    0                           73.0000       56.2651      619   22.92%
      0     0       56.3434    66       73.0000       Cuts: 7      643   22.82%
*     0+    0                           72.0000       56.3434      643   21.75%
      0     0       56.3749    69       72.0000    MIRcuts: 4      663   21.70%
*     0+    0                           69.0000       56.3749      663   18.30%
      0     0       56.3872    71       69.0000    MIRcuts: 2      668   18.28%
*     0+    0                           64.0000       56.3872      668   11.90%
*     0+    0                           62.0000       56.3872      668    9.05%
*     0+    0                           61.0000       56.3872      668    7.56%
*     0+    0                           59.0000       56.3872      668    4.43%

Repeating presolve.
Tried aggregator 1 time.
MIP Presolve eliminated 0 rows and 2199 columns.
Reduced MIP has 220 rows, 1802 columns, and 3622 nonzeros.
Tried aggregator 1 time.
Represolve time =    0.08 sec.
Clique table members: 478.
MIP emphasis: balance optimality and feasibility.
MIP search method: dynamic search.
Parallel mode: none, using 1 thread.
Root relaxation solution time =    0.05 sec.

        Nodes                                         Cuts/
   Node  Left     Objective  IInf  Best Integer     Best Node    ItCnt     Gap

      0     0       57.0000    44       59.0000       57.0000      286    3.39%
      0     2       57.0000    44       59.0000       57.0000      286    3.39%
    100    62    infeasible             59.0000       57.0000     5600    3.39%
    200   139       57.5095    81       59.0000       57.0000    10492    3.39%
    300   202       58.0000    37       59.0000       57.0000    19436    3.39%
    400   257       58.0000    51       59.0000       57.0000    28573    3.39%
    500   327       58.0000    39       59.0000       57.0000    36306    3.39%
    600   331    infeasible             59.0000       57.0000    45691    3.39%
    700   338       58.0000    46       59.0000       57.0000    52546    3.39%
*   793    99      integral     0       58.0000       57.0000    59643    1.72%
    800    95       57.0000    77       58.0000       57.0000    62336    1.72%
    900    94    infeasible             58.0000       57.0000    71634    1.72%
   1000    68    infeasible             58.0000       57.0000    99893    1.72%
Elapsed time =  26.08 sec. (tree size =  0.42 MB, solutions = 11)
   1100    36    infeasible             58.0000       57.0000   140204    1.72%

Cover cuts applied:  384
Mixed integer rounding cuts applied:  21
Zero-half cuts applied:  1
Gomory fractional cuts applied:  8

Solution pool: 11 solutions saved.

MIP - Integer optimal solution:  Objective = 5.8000000000e+001
Solution time =   41.11 sec.  Iterations = 168046  Nodes = 1157


Incumbent solution
Variable Name           Solution Value
Cmax                         58.000000
X_1_11                        1.000000
X_2_13                        1.000000
X_3_10                        1.000000
X_4_11                        1.000000
X_5_11                        1.000000
X_6_9                         1.000000
X_7_10                        1.000000
X_8_20                        1.000000
X_9_6                         1.000000
X_10_8                        1.000000
X_11_13                       1.000000
X_12_17                       1.000000
X_13_9                        1.000000
X_14_14                       1.000000
X_15_19                       1.000000
X_16_18                       1.000000
X_17_9                        1.000000
X_18_5                        1.000000
X_19_6                        1.000000
X_20_13                       1.000000
X_21_2                        1.000000
X_22_6                        1.000000
X_23_7                        1.000000
X_24_13                       1.000000
X_25_20                       1.000000
X_26_2                        1.000000
X_27_5                        1.000000
X_28_4                        1.000000
X_29_7                        1.000000
X_30_20                       1.000000
X_31_13                       1.000000
X_32_16                       1.000000
X_33_7                        1.000000
X_34_8                        1.000000
X_35_8                        1.000000
X_36_13                       1.000000
X_37_2                        1.000000
X_38_17                       1.000000
X_39_16                       1.000000
X_40_11                       1.000000
X_41_8                        1.000000
X_42_2                        1.000000
X_43_17                       1.000000
X_44_10                       1.000000
X_45_15                       1.000000
X_46_2                        1.000000
X_47_1                        1.000000
X_48_8                        1.000000
X_49_12                       1.000000
X_50_17                       1.000000
X_51_1                        1.000000
X_52_2                        1.000000
X_53_19                       1.000000
X_54_18                       1.000000
X_55_10                       1.000000
X_56_18                       1.000000
X_57_10                       1.000000
X_58_12                       1.000000
X_59_19                       1.000000
X_60_11                       1.000000
X_61_12                       1.000000
X_62_6                        1.000000
X_63_7                        1.000000
X_64_20                       1.000000
X_65_19                       1.000000
X_66_3                        1.000000
X_67_16                       1.000000
X_68_7                        1.000000
X_69_15                       1.000000
X_70_17                       1.000000
X_71_2                        1.000000
X_72_6                        1.000000
X_73_1                        1.000000
X_74_13                       1.000000
X_75_18                       1.000000
X_76_19                       1.000000
X_77_11                       1.000000
X_78_7                        1.000000
X_79_7                        1.000000
X_80_10                       1.000000
X_81_2                        1.000000
X_82_14                       1.000000
X_83_8                        1.000000
X_84_10                       1.000000
X_85_6                        1.000000
X_86_10                       1.000000
X_87_14                       1.000000
X_88_6                        1.000000
X_89_12                       1.000000
X_90_1                        1.000000
X_91_17                       1.000000
X_92_5                        1.000000
X_93_3                        1.000000
X_94_18                       1.000000
X_95_16                       1.000000
X_96_5                        1.000000
X_97_10                       1.000000
X_98_16                       1.000000
X_99_16                       1.000000
X_100_17                      1.000000
X_101_7                       1.000000
X_102_9                       1.000000
X_103_20                      1.000000
X_104_9                       1.000000
X_105_3                       1.000000
X_106_8                       1.000000
X_107_9                       1.000000
X_108_1                       1.000000
X_109_15                      1.000000
X_110_12                      1.000000
X_111_8                       1.000000
X_112_14                      1.000000
X_113_14                      1.000000
X_114_9                       1.000000
X_115_4                       1.000000
X_116_13                      1.000000
X_117_4                       1.000000
X_118_20                      1.000000
X_119_6                       1.000000
X_120_20                      1.000000
X_121_7                       1.000000
X_122_2                       1.000000
X_123_5                       1.000000
X_124_17                      1.000000
X_125_14                      1.000000
X_126_20                      1.000000
X_127_8                       1.000000
X_128_11                      1.000000
X_129_13                      1.000000
X_130_4                       1.000000
X_131_8                       1.000000
X_132_3                       1.000000
X_133_9                       1.000000
X_134_15                      1.000000
X_135_12                      1.000000
X_136_7                       1.000000
X_137_14                      1.000000
X_138_5                       1.000000
X_139_3                       1.000000
X_140_16                      1.000000
X_141_3                       1.000000
X_142_12                      1.000000
X_143_11                      1.000000
X_144_16                      1.000000
X_145_9                       1.000000
X_146_6                       1.000000
X_147_17                      1.000000
X_148_20                      1.000000
X_149_2                       1.000000
X_150_9                       1.000000
X_151_13                      1.000000
X_152_19                      1.000000
X_153_18                      1.000000
X_154_13                      1.000000
X_155_13                      1.000000
X_156_7                       1.000000
X_157_3                       1.000000
X_158_20                      1.000000
X_159_15                      1.000000
X_160_20                      1.000000
X_161_4                       1.000000
X_162_12                      1.000000
X_163_8                       1.000000
X_164_3                       1.000000
X_165_9                       1.000000
X_166_10                      1.000000
X_167_20                      1.000000
X_168_12                      1.000000
X_169_13                      1.000000
X_170_16                      1.000000
X_171_18                      1.000000
X_172_17                      1.000000
X_173_9                       1.000000
X_174_20                      1.000000
X_175_14                      1.000000
X_176_18                      1.000000
X_177_14                      1.000000
X_178_19                      1.000000
X_179_19                      1.000000
X_180_12                      1.000000
X_181_15                      1.000000
X_182_10                      1.000000
X_183_3                       1.000000
X_184_5                       1.000000
X_185_6                       1.000000
X_186_5                       1.000000
X_187_12                      1.000000
X_188_9                       1.000000
X_189_19                      1.000000
X_190_15                      1.000000
X_191_16                      1.000000
X_192_11                      1.000000
X_193_11                      1.000000
X_194_11                      1.000000
X_195_12                      1.000000
X_196_7                       1.000000
X_197_4                       1.000000
X_198_12                      1.000000
X_199_8                       1.000000
X_200_4                       1.000000
All other variables in the range 1-4001 are 0.
